<instance format="XCSP3" type="COP">
  <variables>
    <array id="x" size="[74]"> 0..73 </array>
  </variables>
  <constraints>
    <group>
      <intension> ne(%0,%1) </intension>
      <args> x[0] x[3] </args>
      <args> x[0] x[4] </args>
      <args> x[0] x[8] </args>
      <args> x[0] x[9] </args>
      <args> x[0] x[10] </args>
      <args> x[0] x[12] </args>
      <args> x[0] x[21] </args>
      <args> x[0] x[24] </args>
      <args> x[0] x[28] </args>
      <args> x[0] x[39] </args>
      <args> x[0] x[43] </args>
      <args> x[0] x[48] </args>
      <args> x[0] x[49] </args>
      <args> x[0] x[54] </args>
      <args> x[0] x[58] </args>
      <args> x[0] x[62] </args>
      <args> x[0] x[68] </args>
      <args> x[0] x[71] </args>
      <args> x[1] x[3] </args>
      <args> x[1] x[40] </args>
      <args> x[1] x[42] </args>
      <args> x[1] x[45] </args>
      <args> x[1] x[50] </args>
      <args> x[1] x[54] </args>
      <args> x[1] x[56] </args>
      <args> x[1] x[61] </args>
      <args> x[1] x[73] </args>
      <args> x[2] x[8] </args>
      <args> x[2] x[51] </args>
      <args> x[2] x[52] </args>
      <args> x[2] x[54] </args>
      <args> x[3] x[8] </args>
      <args> x[3] x[11] </args>
      <args> x[3] x[18] </args>
      <args> x[3] x[21] </args>
      <args> x[3] x[26] </args>
      <args> x[3] x[31] </args>
      <args> x[3] x[40] </args>
      <args> x[3] x[42] </args>
      <args> x[3] x[44] </args>
      <args> x[3] x[45] </args>
      <args> x[3] x[46] </args>
      <args> x[3] x[48] </args>
      <args> x[3] x[54] </args>
      <args> x[3] x[55] </args>
      <args> x[3] x[56] </args>
      <args> x[3] x[59] </args>
      <args> x[3] x[61] </args>
      <args> x[3] x[62] </args>
      <args> x[3] x[66] </args>
      <args> x[3] x[67] </args>
      <args> x[3] x[68] </args>
      <args> x[3] x[70] </args>
      <args> x[3] x[72] </args>
      <args> x[4] x[10] </args>
      <args> x[4] x[12] </args>
      <args> x[4] x[24] </args>
      <args> x[4] x[28] </args>
      <args> x[4] x[39] </args>
      <args> x[4] x[48] </args>
      <args> x[4] x[49] </args>
      <args> x[4] x[54] </args>
      <args> x[4] x[58] </args>
      <args> x[5] x[16] </args>
      <args> x[5] x[19] </args>
      <args> x[5] x[20] </args>
      <args> x[5] x[22] </args>
      <args> x[5] x[33] </args>
      <args> x[5] x[38] </args>
      <args> x[5] x[54] </args>
      <args> x[5] x[63] </args>
      <args> x[6] x[69] </args>
      <args> x[7] x[8] </args>
      <args> x[7] x[13] </args>
      <args> x[7] x[17] </args>
      <args> x[7] x[30] </args>
      <args> x[7] x[37] </args>
      <args> x[7] x[43] </args>
      <args> x[7] x[51] </args>
      <args> x[8] x[9] </args>
      <args> x[8] x[13] </args>
      <args> x[8] x[17] </args>
      <args> x[8] x[21] </args>
      <args> x[8] x[30] </args>
      <args> x[8] x[37] </args>
      <args> x[8] x[43] </args>
      <args> x[8] x[48] </args>
      <args> x[8] x[51] </args>
      <args> x[8] x[52] </args>
      <args> x[8] x[54] </args>
      <args> x[8] x[65] </args>
      <args> x[8] x[68] </args>
      <args> x[8] x[71] </args>
      <args> x[9] x[48] </args>
      <args> x[9] x[54] </args>
      <args> x[9] x[71] </args>
      <args> x[10] x[12] </args>
      <args> x[10] x[24] </args>
      <args> x[10] x[28] </args>
      <args> x[10] x[39] </args>
      <args> x[10] x[48] </args>
      <args> x[10] x[49] </args>
      <args> x[10] x[54] </args>
      <args> x[10] x[58] </args>
      <args> x[11] x[40] </args>
      <args> x[11] x[42] </args>
      <args> x[11] x[46] </args>
      <args> x[11] x[54] </args>
      <args> x[11] x[56] </args>
      <args> x[11] x[61] </args>
      <args> x[11] x[66] </args>
      <args> x[11] x[72] </args>
      <args> x[12] x[24] </args>
      <args> x[12] x[28] </args>
      <args> x[12] x[39] </args>
      <args> x[12] x[48] </args>
      <args> x[12] x[49] </args>
      <args> x[12] x[54] </args>
      <args> x[12] x[58] </args>
      <args> x[13] x[17] </args>
      <args> x[13] x[30] </args>
      <args> x[13] x[37] </args>
      <args> x[13] x[43] </args>
      <args> x[13] x[51] </args>
      <args> x[14] x[21] </args>
      <args> x[14] x[54] </args>
      <args> x[15] x[54] </args>
      <args> x[15] x[64] </args>
      <args> x[16] x[19] </args>
      <args> x[16] x[20] </args>
      <args> x[16] x[22] </args>
      <args> x[16] x[27] </args>
      <args> x[16] x[29] </args>
      <args> x[16] x[33] </args>
      <args> x[16] x[38] </args>
      <args> x[16] x[54] </args>
      <args> x[16] x[63] </args>
      <args> x[17] x[21] </args>
      <args> x[17] x[23] </args>
      <args> x[17] x[30] </args>
      <args> x[17] x[37] </args>
      <args> x[17] x[43] </args>
      <args> x[17] x[51] </args>
      <args> x[17] x[54] </args>
      <args> x[18] x[26] </args>
      <args> x[18] x[40] </args>
      <args> x[18] x[54] </args>
      <args> x[18] x[55] </args>
      <args> x[18] x[56] </args>
      <args> x[18] x[59] </args>
      <args> x[18] x[67] </args>
      <args> x[18] x[72] </args>
      <args> x[19] x[20] </args>
      <args> x[19] x[22] </args>
      <args> x[19] x[33] </args>
      <args> x[19] x[38] </args>
      <args> x[19] x[54] </args>
      <args> x[19] x[63] </args>
      <args> x[20] x[22] </args>
      <args> x[20] x[33] </args>
      <args> x[20] x[38] </args>
      <args> x[20] x[54] </args>
      <args> x[20] x[63] </args>
      <args> x[21] x[25] </args>
      <args> x[21] x[40] </args>
      <args> x[21] x[41] </args>
      <args> x[21] x[43] </args>
      <args> x[21] x[48] </args>
      <args> x[21] x[54] </args>
      <args> x[21] x[56] </args>
      <args> x[21] x[60] </args>
      <args> x[21] x[62] </args>
      <args> x[21] x[65] </args>
      <args> x[21] x[68] </args>
      <args> x[22] x[29] </args>
      <args> x[22] x[33] </args>
      <args> x[22] x[38] </args>
      <args> x[22] x[54] </args>
      <args> x[22] x[63] </args>
      <args> x[23] x[30] </args>
      <args> x[23] x[41] </args>
      <args> x[23] x[54] </args>
      <args> x[24] x[28] </args>
      <args> x[24] x[39] </args>
      <args> x[24] x[48] </args>
      <args> x[24] x[49] </args>
      <args> x[24] x[54] </args>
      <args> x[24] x[58] </args>
      <args> x[26] x[40] </args>
      <args> x[26] x[54] </args>
      <args> x[26] x[55] </args>
      <args> x[26] x[56] </args>
      <args> x[26] x[59] </args>
      <args> x[26] x[61] </args>
      <args> x[26] x[67] </args>
      <args> x[26] x[72] </args>
      <args> x[28] x[39] </args>
      <args> x[28] x[48] </args>
      <args> x[28] x[49] </args>
      <args> x[28] x[54] </args>
      <args> x[28] x[58] </args>
      <args> x[29] x[54] </args>
      <args> x[30] x[37] </args>
      <args> x[30] x[43] </args>
      <args> x[30] x[51] </args>
      <args> x[30] x[54] </args>
      <args> x[31] x[70] </args>
      <args> x[32] x[48] </args>
      <args> x[33] x[38] </args>
      <args> x[33] x[54] </args>
      <args> x[33] x[63] </args>
      <args> x[34] x[47] </args>
      <args> x[34] x[57] </args>
      <args> x[35] x[40] </args>
      <args> x[35] x[54] </args>
      <args> x[35] x[56] </args>
      <args> x[35] x[59] </args>
      <args> x[36] x[48] </args>
      <args> x[36] x[71] </args>
      <args> x[37] x[43] </args>
      <args> x[37] x[51] </args>
      <args> x[38] x[54] </args>
      <args> x[38] x[63] </args>
      <args> x[39] x[48] </args>
      <args> x[39] x[49] </args>
      <args> x[39] x[54] </args>
      <args> x[39] x[58] </args>
      <args> x[40] x[42] </args>
      <args> x[40] x[45] </args>
      <args> x[40] x[46] </args>
      <args> x[40] x[50] </args>
      <args> x[40] x[54] </args>
      <args> x[40] x[55] </args>
      <args> x[40] x[56] </args>
      <args> x[40] x[59] </args>
      <args> x[40] x[61] </args>
      <args> x[40] x[66] </args>
      <args> x[40] x[67] </args>
      <args> x[40] x[72] </args>
      <args> x[40] x[73] </args>
      <args> x[41] x[54] </args>
      <args> x[42] x[46] </args>
      <args> x[42] x[50] </args>
      <args> x[42] x[56] </args>
      <args> x[42] x[66] </args>
      <args> x[42] x[72] </args>
      <args> x[42] x[73] </args>
      <args> x[43] x[48] </args>
      <args> x[43] x[51] </args>
      <args> x[43] x[54] </args>
      <args> x[44] x[70] </args>
      <args> x[45] x[54] </args>
      <args> x[45] x[56] </args>
      <args> x[45] x[61] </args>
      <args> x[46] x[54] </args>
      <args> x[46] x[56] </args>
      <args> x[46] x[61] </args>
      <args> x[46] x[66] </args>
      <args> x[46] x[72] </args>
      <args> x[47] x[57] </args>
      <args> x[48] x[49] </args>
      <args> x[48] x[54] </args>
      <args> x[48] x[58] </args>
      <args> x[48] x[68] </args>
      <args> x[48] x[71] </args>
      <args> x[49] x[54] </args>
      <args> x[49] x[58] </args>
      <args> x[50] x[56] </args>
      <args> x[50] x[73] </args>
      <args> x[51] x[52] </args>
      <args> x[51] x[54] </args>
      <args> x[52] x[54] </args>
      <args> x[53] x[54] </args>
      <args> x[54] x[55] </args>
      <args> x[54] x[56] </args>
      <args> x[54] x[58] </args>
      <args> x[54] x[59] </args>
      <args> x[54] x[61] </args>
      <args> x[54] x[63] </args>
      <args> x[54] x[64] </args>
      <args> x[54] x[65] </args>
      <args> x[54] x[66] </args>
      <args> x[54] x[67] </args>
      <args> x[54] x[68] </args>
      <args> x[54] x[71] </args>
      <args> x[54] x[72] </args>
      <args> x[55] x[56] </args>
      <args> x[55] x[59] </args>
      <args> x[55] x[67] </args>
      <args> x[55] x[72] </args>
      <args> x[56] x[59] </args>
      <args> x[56] x[61] </args>
      <args> x[56] x[66] </args>
      <args> x[56] x[67] </args>
      <args> x[56] x[72] </args>
      <args> x[56] x[73] </args>
      <args> x[59] x[67] </args>
      <args> x[59] x[72] </args>
      <args> x[61] x[66] </args>
      <args> x[66] x[72] </args>
      <args> x[67] x[72] </args>
    </group>
  </constraints>
  <objectives>
    <minimize type="maximum"> x[] </minimize>
  </objectives>
</instance>
